NAME : portgen-19-18
COMMENT : portgen N=19, seed=18
TYPE : TSP
DIMENSION : 19
EDGE_WEIGHT_TYPE : EUC_2D
NODE_COORD_SECTION
1 576044 772956
2 993592 603857
3 809179 172023
4 853183 972765
5 625315 423071
6 636498 592998
7 525593 97328
8 741938 848949
9 877545 870524
10 693108 971295
11 755722 250916
12 564283 796019
13 440998 219859
14 401337 392184
15 221967 798210
16 652210 532099
17 659178 748913
18 572612 401198
19 644288 896457
